BAYES
144
2 2 2 2 2 2 2 2 2 2 2 2 2 2 2 2 2 2 2 2 2 2 2 2 2 2 2 2 2 2 2 2 2 2 2 2 2 2 2 2 2 2 2 2 2 2 2 2 2 2 2 2 2 2 2 2 2 2 2 2 2 2 2 2 2 2 2 2 2 2 2 2 2 2 2 2 2 2 2 2 2 2 2 2 2 2 2 2 2 2 2 2 2 2 2 2 2 2 2 2 2 2 2 2 2 2 2 2 2 2 2 2 2 2 2 2 2 2 2 2 2 2 2 2 2 2 2 2 2 2 2 2 2 2 2 2 2 2 2 2 2 2 2 2
144
3 1 12 0
3 2 13 1
3 3 14 2
3 4 15 3
3 5 16 4
3 6 17 5
3 7 18 6
3 8 19 7
3 9 20 8
3 10 21 9
3 11 22 10
2 12 11
3 13 24 12
3 14 25 13
3 15 26 14
3 16 27 15
3 17 28 16
3 18 29 17
3 19 30 18
3 20 31 19
3 21 32 20
3 22 33 21
3 23 34 22
2 24 23
3 25 36 24
3 26 37 25
3 27 38 26
3 28 39 27
3 29 40 28
3 30 41 29
3 31 42 30
3 32 43 31
3 33 44 32
3 34 45 33
3 35 46 34
2 36 35
3 37 48 36
3 38 49 37
3 39 50 38
3 40 51 39
3 41 52 40
3 42 53 41
3 43 54 42
3 44 55 43
3 45 56 44
3 46 57 45
3 47 58 46
2 48 47
3 49 60 48
3 50 61 49
3 51 62 50
3 52 63 51
3 53 64 52
3 54 65 53
3 55 66 54
3 56 67 55
3 57 68 56
3 58 69 57
3 59 70 58
2 60 59
3 61 72 60
3 62 73 61
3 63 74 62
3 64 75 63
3 65 76 64
3 66 77 65
3 67 78 66
3 68 79 67
3 69 80 68
3 70 81 69
3 71 82 70
2 72 71
3 73 84 72
3 74 85 73
3 75 86 74
3 76 87 75
3 77 88 76
3 78 89 77
3 79 90 78
3 80 91 79
3 81 92 80
3 82 93 81
3 83 94 82
2 84 83
3 85 96 84
3 86 97 85
3 87 98 86
3 88 99 87
3 89 100 88
3 90 101 89
3 91 102 90
3 92 103 91
3 93 104 92
3 94 105 93
3 95 106 94
2 96 95
3 97 108 96
3 98 109 97
3 99 110 98
3 100 111 99
3 101 112 100
3 102 113 101
3 103 114 102
3 104 115 103
3 105 116 104
3 106 117 105
3 107 118 106
2 108 107
3 109 120 108
3 110 121 109
3 111 122 110
3 112 123 111
3 113 124 112
3 114 125 113
3 115 126 114
3 116 127 115
3 117 128 116
3 118 129 117
3 119 130 118
2 120 119
3 121 132 120
3 122 133 121
3 123 134 122
3 124 135 123
3 125 136 124
3 126 137 125
3 127 138 126
3 128 139 127
3 129 140 128
3 130 141 129
3 131 142 130
2 132 131
2 144 132
2 145 133
2 146 134
2 147 135
2 148 136
2 149 137
2 150 138
2 151 139
2 152 140
2 153 141
2 154 142
1  143
8
0 1 0 1 1 0 0 1
8
1 0 1 0 0 1 0 1
8
0.815346519349767 0.18465348065023304 0.12651046449251424 0.8734895355074858 0.3412926009755645 0.6587073990244355 0.8439249046085981 0.15607509539140182
8
0 1 0 1 1 0 1 0
8
0 1 1 0 0 1 0 1
8
1 0 1 0 1 0 0 1
8
1 0 1 0 1 0 0 1
8
1 0 1 0 1 0 0 1
8
1 0 0 1 0 1 0 1
8
0 1 0 1 1 0 0 1
8
0 1 0 1 0 1 1 0
4
0.5553793595147672 0.4446206404852328 0.8648084011298905 0.1351915988701094
8
0 1 0 1 0 1 0 1
8
1 0 0 1 1 0 1 0
8
0 1 0 1 1 0 0 1
8
0 1 0 1 0 1 1 0
8
1 0 0 1 1 0 1 0
8
0 1 1 0 1 0 1 0
8
1 0 1 0 0 1 1 0
8
0 1 0 1 1 0 1 0
8
0 1 0 1 1 0 1 0
8
1 0 0 1 1 0 0 1
8
1 0 0 1 0 1 0 1
4
1 0 1 0
8
0 1 0 1 1 0 1 0
8
0 1 0 1 0 1 1 0
8
0 1 0 1 0 1 0 1
8
0.5342727032916395 0.4657272967083605 0.8307767575831315 0.16922324241686845 0.2586740199537784 0.7413259800462216 0.38301200784102174 0.6169879921589784
8
1 0 0 1 0 1 1 0
8
1 0 1 0 1 0 1 0
8
0.6000127123991461 0.3999872876008539 0.4208415823344588 0.5791584176655412 0.4915519351990579 0.5084480648009422 0.10981383118507407 0.890186168814926
8
1 0 0 1 0 1 0 1
8
0 1 0 1 1 0 1 0
8
1 0 1 0 1 0 1 0
8
0 1 1 0 1 0 1 0
4
0.5243772868035566 0.47562271319644334 0.9203634676654733 0.07963653233452676
8
1 0 0 1 1 0 1 0
8
0 1 1 0 1 0 0 1
8
1 0 0 1 1 0 1 0
8
0 1 1 0 1 0 1 0
8
1 0 1 0 0 1 1 0
8
1 0 1 0 0 1 0 1
8
0.5293166404447397 0.47068335955526036 0.020857265760386417 0.9791427342396136 0.5672169727504061 0.43278302724959405 0.48828599946502066 0.5117140005349794
8
0.22423311033265644 0.7757668896673435 0.5194430713880895 0.4805569286119105 0.5731114082567901 0.42688859174321 0.3119639702910449 0.688036029708955
8
1 0 0 1 0 1 0 1
8
1 0 1 0 0 1 0 1
8
0 1 0 1 1 0 0 1
4
0.2830519009105479 0.7169480990894521 0.5648610724550267 0.4351389275449733
8
1 0 0 1 1 0 1 0
8
1 0 0 1 0 1 1 0
8
1 0 0 1 1 0 0 1
8
0 1 0 1 1 0 1 0
8
0 1 0 1 1 0 0 1
8
0 1 0 1 1 0 0 1
8
0 1 0 1 0 1 1 0
8
0 1 0 1 1 0 1 0
8
1 0 1 0 0 1 1 0
8
0 1 0 1 0 1 1 0
8
0 1 0 1 1 0 1 0
4
0.5437054793958792 0.45629452060412073 0.7508794280195903 0.2491205719804098
8
0 1 1 0 0 1 0 1
8
0 1 1 0 0 1 1 0
8
1 0 1 0 0 1 0 1
8
0.6055651034324325 0.39443489656756753 0.5932441205380182 0.4067558794619817 0.9276029473732267 0.07239705262677336 0.3204450798578277 0.6795549201421722
8
1 0 1 0 0 1 0 1
8
1 0 1 0 0 1 0 1
8
1 0 1 0 1 0 0 1
8
0 1 1 0 0 1 1 0
8
0 1 0 1 1 0 1 0
8
0 1 0 1 0 1 0 1
8
1 0 1 0 1 0 0 1
4
1 0 0 1
8
1 0 0 1 1 0 1 0
8
0 1 1 0 0 1 0 1
8
1 0 1 0 0 1 1 0
8
0 1 1 0 1 0 0 1
8
1 0 0 1 1 0 1 0
8
0 1 0 1 0 1 0 1
8
1 0 0 1 0 1 1 0
8
1 0 1 0 0 1 1 0
8
1 0 0 1 1 0 0 1
8
0 1 0 1 1 0 0 1
8
0 1 0 1 1 0 1 0
4
1 0 1 0
8
0 1 0 1 1 0 0 1
8
0 1 0 1 0 1 1 0
8
0 1 0 1 1 0 1 0
8
0.33211189028639837 0.6678881097136017 0.48360128697618726 0.5163987130238128 0.729089867173546 0.27091013282645393 0.6790748515982699 0.3209251484017302
8
1 0 1 0 1 0 1 0
8
1 0 0 1 1 0 1 0
8
1 0 1 0 0 1 1 0
8
1 0 1 0 1 0 0 1
8
0 1 1 0 1 0 0 1
8
1 0 1 0 0 1 1 0
8
0 1 0 1 0 1 1 0
4
1 0 1 0
8
1 0 0 1 0 1 1 0
8
1 0 1 0 0 1 0 1
8
1 0 1 0 1 0 1 0
8
0 1 1 0 1 0 1 0
8
1 0 0 1 0 1 1 0
8
1 0 1 0 1 0 0 1
8
0 1 1 0 0 1 0 1
8
0 1 0 1 1 0 1 0
8
0 1 1 0 0 1 1 0
8
1 0 1 0 0 1 1 0
8
1 0 1 0 0 1 1 0
4
1 0 0 1
8
0.10686928074961058 0.8931307192503894 0.6508200330831324 0.3491799669168675 0.6731817444760019 0.3268182555239981 0.37740396953668476 0.6225960304633152
8
1 0 0 1 1 0 1 0
8
0 1 1 0 1 0 1 0
8
0 1 1 0 1 0 0 1
8
1 0 1 0 0 1 0 1
8
1 0 0 1 1 0 0 1
8
1 0 1 0 0 1 0 1
8
1 0 0 1 1 0 0 1
8
1 0 1 0 1 0 0 1
8
0.3783246757600272 0.6216753242399728 0.34680627503202277 0.6531937249679772 0.23284072277050977 0.7671592772294902 0.40271144351772026 0.5972885564822797
8
0.379043846457296 0.6209561535427041 0.35936076251669447 0.6406392374833055 0.5499091788078301 0.4500908211921699 0.8850059034816409 0.11499409651835917
4
1 0 1 0
8
1 0 0 1 1 0 1 0
8
0 1 0 1 0 1 0 1
8
1 0 1 0 0 1 0 1
8
1 0 0 1 1 0 1 0
8
1 0 0 1 0 1 1 0
8
0 1 0 1 1 0 0 1
8
0 1 0 1 0 1 0 1
8
0 1 1 0 1 0 1 0
8
1 0 0 1 1 0 1 0
8
0 1 0 1 1 0 0 1
8
0 1 0 1 0 1 0 1
4
1 0 0 1
4
0 1 1 0
4
0 1 0 1
4
1 0 0 1
4
0 1 1 0
4
0 1 1 0
4
1 0 0 1
4
1 0 0 1
4
1 0 1 0
4
1 0 0 1
4
1 0 1 0
4
0.018796099047978094 0.9812039009520219 0.38072640990944645 0.6192735900905536
2
1 0
